1111100 AB red
339 380 449 466
1111100 BA
347 376 388 405 415 435 445 455 465 472 480 489 497 505 513 521 529 538 547 555 565 575 586 594 605 616 624 634 643 653 662 676 690 707 718 735 746 756 766 776 787 798 807 816 826 835 845 855 864 873 883 894 904 914 925 937 948 961 979 992 1003 1014 1026 1038 1049 1060 1070 1080 1091 1105 1121 1135 1149 1162 1176 1190 1217 1247 1276 1306 1337 1368
0000011 AB red
339
0000011 BA
348 377 404 432 460 488 516 544 572 600 628 656 684 698 712 726 740 754 782 810 838 866 894 922 950 978 992 1006 1020 1034 1048 1076 1104 1132 1160 1189 1217 1244 1274 1302 1332 1362
